certificates/rado_a15_c205_N47.cnf
c Rad2 upper bound instance: x1 + 15*x2 - x3 = 205, interval [1,47]
p cnf 47 294
1 6 14 0
-1 -6 -14 0
1 15 21 0
-1 -15 -21 0
1 16 36 0
-1 -16 -36 0
2 7 14 0
-2 -7 -14 0
2 15 22 0
-2 -15 -22 0
2 16 37 0
-2 -16 -37 0
3 8 14 0
-3 -8 -14 0
3 15 23 0
-3 -15 -23 0
3 16 38 0
-3 -16 -38 0
4 9 14 0
-4 -9 -14 0
4 15 24 0
-4 -15 -24 0
4 16 39 0
-4 -16 -39 0
5 10 14 0
-5 -10 -14 0
5 15 25 0
-5 -15 -25 0
5 16 40 0
-5 -16 -40 0
6 11 14 0
-6 -11 -14 0
6 15 26 0
-6 -15 -26 0
6 16 41 0
-6 -16 -41 0
7 12 14 0
-7 -12 -14 0
7 15 27 0
-7 -15 -27 0
7 16 42 0
-7 -16 -42 0
8 13 14 0
-8 -13 -14 0
8 15 28 0
-8 -15 -28 0
8 16 43 0
-8 -16 -43 0
9 14 0
-9 -14 0
9 15 29 0
-9 -15 -29 0
9 16 44 0
-9 -16 -44 0
10 14 15 0
-10 -14 -15 0
10 15 30 0
-10 -15 -30 0
10 16 45 0
-10 -16 -45 0
1 11 13 0
-1 -11 -13 0
11 14 16 0
-11 -14 -16 0
11 15 31 0
-11 -15 -31 0
11 16 46 0
-11 -16 -46 0
2 12 13 0
-2 -12 -13 0
12 14 17 0
-12 -14 -17 0
12 15 32 0
-12 -15 -32 0
12 16 47 0
-12 -16 -47 0
3 13 0
-3 -13 0
13 14 18 0
-13 -14 -18 0
13 15 33 0
-13 -15 -33 0
4 13 14 0
-4 -13 -14 0
14 19 0
-14 -19 0
14 15 34 0
-14 -15 -34 0
5 13 15 0
-5 -13 -15 0
14 15 20 0
-14 -15 -20 0
15 35 0
-15 -35 0
6 13 16 0
-6 -13 -16 0
14 16 21 0
-14 -16 -21 0
15 16 36 0
-15 -16 -36 0
7 13 17 0
-7 -13 -17 0
14 17 22 0
-14 -17 -22 0
15 17 37 0
-15 -17 -37 0
8 13 18 0
-8 -13 -18 0
14 18 23 0
-14 -18 -23 0
15 18 38 0
-15 -18 -38 0
9 13 19 0
-9 -13 -19 0
14 19 24 0
-14 -19 -24 0
15 19 39 0
-15 -19 -39 0
10 13 20 0
-10 -13 -20 0
14 20 25 0
-14 -20 -25 0
15 20 40 0
-15 -20 -40 0
11 13 21 0
-11 -13 -21 0
14 21 26 0
-14 -21 -26 0
15 21 41 0
-15 -21 -41 0
12 13 22 0
-12 -13 -22 0
14 22 27 0
-14 -22 -27 0
15 22 42 0
-15 -22 -42 0
13 23 0
-13 -23 0
14 23 28 0
-14 -23 -28 0
15 23 43 0
-15 -23 -43 0
13 14 24 0
-13 -14 -24 0
14 24 29 0
-14 -24 -29 0
15 24 44 0
-15 -24 -44 0
13 15 25 0
-13 -15 -25 0
14 25 30 0
-14 -25 -30 0
15 25 45 0
-15 -25 -45 0
1 12 26 0
-1 -12 -26 0
13 16 26 0
-13 -16 -26 0
14 26 31 0
-14 -26 -31 0
15 26 46 0
-15 -26 -46 0
2 12 27 0
-2 -12 -27 0
13 17 27 0
-13 -17 -27 0
14 27 32 0
-14 -27 -32 0
15 27 47 0
-15 -27 -47 0
3 12 28 0
-3 -12 -28 0
13 18 28 0
-13 -18 -28 0
14 28 33 0
-14 -28 -33 0
4 12 29 0
-4 -12 -29 0
13 19 29 0
-13 -19 -29 0
14 29 34 0
-14 -29 -34 0
5 12 30 0
-5 -12 -30 0
13 20 30 0
-13 -20 -30 0
14 30 35 0
-14 -30 -35 0
6 12 31 0
-6 -12 -31 0
13 21 31 0
-13 -21 -31 0
14 31 36 0
-14 -31 -36 0
7 12 32 0
-7 -12 -32 0
13 22 32 0
-13 -22 -32 0
14 32 37 0
-14 -32 -37 0
8 12 33 0
-8 -12 -33 0
13 23 33 0
-13 -23 -33 0
14 33 38 0
-14 -33 -38 0
9 12 34 0
-9 -12 -34 0
13 24 34 0
-13 -24 -34 0
14 34 39 0
-14 -34 -39 0
10 12 35 0
-10 -12 -35 0
13 25 35 0
-13 -25 -35 0
14 35 40 0
-14 -35 -40 0
11 12 36 0
-11 -12 -36 0
13 26 36 0
-13 -26 -36 0
14 36 41 0
-14 -36 -41 0
12 37 0
-12 -37 0
13 27 37 0
-13 -27 -37 0
14 37 42 0
-14 -37 -42 0
12 13 38 0
-12 -13 -38 0
13 28 38 0
-13 -28 -38 0
14 38 43 0
-14 -38 -43 0
12 14 39 0
-12 -14 -39 0
13 29 39 0
-13 -29 -39 0
14 39 44 0
-14 -39 -44 0
12 15 40 0
-12 -15 -40 0
13 30 40 0
-13 -30 -40 0
14 40 45 0
-14 -40 -45 0
1 11 41 0
-1 -11 -41 0
12 16 41 0
-12 -16 -41 0
13 31 41 0
-13 -31 -41 0
14 41 46 0
-14 -41 -46 0
2 11 42 0
-2 -11 -42 0
12 17 42 0
-12 -17 -42 0
13 32 42 0
-13 -32 -42 0
14 42 47 0
-14 -42 -47 0
3 11 43 0
-3 -11 -43 0
12 18 43 0
-12 -18 -43 0
13 33 43 0
-13 -33 -43 0
4 11 44 0
-4 -11 -44 0
12 19 44 0
-12 -19 -44 0
13 34 44 0
-13 -34 -44 0
5 11 45 0
-5 -11 -45 0
12 20 45 0
-12 -20 -45 0
13 35 45 0
-13 -35 -45 0
6 11 46 0
-6 -11 -46 0
12 21 46 0
-12 -21 -46 0
13 36 46 0
-13 -36 -46 0
7 11 47 0
-7 -11 -47 0
12 22 47 0
-12 -22 -47 0
13 37 47 0
-13 -37 -47 0
