certificates/rado_a15_c205_N47.drat
14 -44 -46 0
-44 -46 -47 0
19 44 -47 0
44 -47 0
d 19 44 -47 0
-19 -47 0
-47 0
19 -44 0
-44 0
-19 0
14 0
12 0
-9 0
-7 0
-17 0
-37 0
-39 0
16 0
13 0
11 0
15 0
-21 0
-26 0
-41 0
-6 0
0
